NAME : U-A-n80-k10.1766496.tour
COMMENT : Cost = 0_1766496
COMMENT : Found by LKH [Keld Helsgaun] Wed Sep 13 14:28:50 2017
TYPE : TOUR
DIMENSION : 89
TOUR_SECTION
1
11
64
12
25
7
24
86
35
3
38
9
69
44
17
62
79
31
88
52
78
4
40
61
75
14
83
18
32
28
60
6
45
13
63
82
41
22
8
2
87
30
21
76
58
20
27
36
66
70
57
48
16
34
65
81
71
77
51
46
23
5
33
59
84
43
54
67
68
37
74
50
89
39
73
55
10
56
42
26
47
85
53
29
80
19
49
15
72
-1
EOF
